NAME: tsp25_4
COMMENT: 25-tsp problem (Padberg/Rinaldi)
TYPE: TSP
DIMENSION: 25
EDGE_WEIGHT_TYPE : EUC_2D
NODE_COORD_SECTION
1.00 30.03 16.27
2.00 5.37 28.15
3.00 4.57 12.72
4.00 0.04 11.26
5.00 8.82 28.52
6.00 9.65 18.67
7.00 22.37 14.36
8.00 14.27 14.01
9.00 25.40 0.06
10.00 0.10 25.42
11.00 16.91 24.99
12.00 8.24 16.68
13.00 31.61 37.77
14.00 32.96 35.94
15.00 21.53 30.29
16.00 7.70 13.19
17.00 37.21 6.12
18.00 36.40 15.29
19.00 12.51 33.29
20.00 20.69 11.39
21.00 22.43 32.91
22.00 21.44 31.76
23.00 1.16 0.50
24.00 7.06 31.41
25.00 11.65 27.11
